 106443
1179867
 823780
1224908
1720086
1550418
1759362
 975242
 922544
 855863
 657438
1405566
 874239
1951335
1438280
 580695
 105810
 792012
 676986
 285933
1498810
 563835
 675972
 145906
 496529
1740494
  60865
 796975
 309183
1476115
 201234
1318520
1514361
 757088
 105972
 896303
1970879
1438407
1351689
 916373
